IrIn3          
   1.00000000000000     
     7.5457278201470297    0.0000000000000000   -0.0000000000000000
     0.0000000000000000    8.4126290899405429    0.0000000000000000
    -0.0000000000000000    0.0000000000000000    5.4423484711679038
In Ir
    12   4
Direct
  0.1698644418749374  0.0544440005525174  0.1360791112257088
  0.8301355881250650  0.9455559804474846  0.8639209037742888
  0.3301355581250625  0.9455559804474846  0.6360790962257112
  0.6698644118749350  0.0544440005525174  0.3639209037742887
  0.8301355881250650  0.5544440195525154  0.8639209037742888
  0.1698644418749374  0.4455560104474799  0.1360791112257088
  0.6698644118749350  0.4455560104474799  0.3639209037742887
  0.3301355581250625  0.5544440195525154  0.6360790962257112
  0.0124378992602184  0.2500000000000000  0.5875567991444713
  0.9875620707397863  0.7500000000000000  0.4124432008555285
  0.4875621007397816  0.7500000000000000  0.0875567991444715
  0.5124379292602137  0.2500000000000000  0.9124432008555287
  0.3719312911213697  0.2500000000000000  0.4384287552548381
  0.6280686788786281  0.7500000000000000  0.5615712447451618
  0.1280687088786304  0.7500000000000000  0.9384287552548382
  0.8719313211213719  0.2500000000000000  0.0615712447451618
 
  0.00000000E+00  0.00000000E+00  0.00000000E+00
  0.00000000E+00  0.00000000E+00  0.00000000E+00
  0.00000000E+00  0.00000000E+00  0.00000000E+00
  0.00000000E+00  0.00000000E+00  0.00000000E+00
  0.00000000E+00  0.00000000E+00  0.00000000E+00
  0.00000000E+00  0.00000000E+00  0.00000000E+00
  0.00000000E+00  0.00000000E+00  0.00000000E+00
  0.00000000E+00  0.00000000E+00  0.00000000E+00
  0.00000000E+00  0.00000000E+00  0.00000000E+00
  0.00000000E+00  0.00000000E+00  0.00000000E+00
  0.00000000E+00  0.00000000E+00  0.00000000E+00
  0.00000000E+00  0.00000000E+00  0.00000000E+00
  0.00000000E+00  0.00000000E+00  0.00000000E+00
  0.00000000E+00  0.00000000E+00  0.00000000E+00
  0.00000000E+00  0.00000000E+00  0.00000000E+00
  0.00000000E+00  0.00000000E+00  0.00000000E+00
