In3 Ir1                                 
   1.00000000000000     
     6.9932999611000000    0.0000000000000000    0.0000000000000000
     0.0000000000000000    6.9932999611000000    0.0000000000000000
     0.0000000000000000    0.0000000000000000    7.1908001900000000
Ir In
   4  12
Direct
  0.3455636862342257  0.3455636862342257  0.0000000000000000
  0.6544362797657786  0.6544362797657786  0.0000000000000000
  0.1544362967657764  0.8455636862342257  0.5000000000000000
  0.8455636862342257  0.1544362967657764  0.5000000000000000
  0.0000000000000000  0.5000000000000000  0.0000000000000000
  0.0000000000000000  0.5000000000000000  0.5000000000000000
  0.5000000000000000  0.0000000000000000  0.5000000000000000
  0.5000000000000000  0.0000000000000000  0.0000000000000000
  0.1514433588930889  0.1514433588930889  0.2543893894970338
  0.8485565901069106  0.8485565901069106  0.7456105605029691
  0.8485565901069106  0.8485565901069106  0.2543893894970338
  0.1514433588930889  0.1514433588930889  0.7456105605029691
  0.3485566241069133  0.6514433758930865  0.7543894064970317
  0.6514433758930865  0.3485566241069133  0.2456106105029662
  0.6514433758930865  0.3485566241069133  0.7543894064970317
  0.3485566241069133  0.6514433758930865  0.2456106105029662
 
  0.00000000E+00  0.00000000E+00  0.00000000E+00
  0.00000000E+00  0.00000000E+00  0.00000000E+00
  0.00000000E+00  0.00000000E+00  0.00000000E+00
  0.00000000E+00  0.00000000E+00  0.00000000E+00
  0.00000000E+00  0.00000000E+00  0.00000000E+00
  0.00000000E+00  0.00000000E+00  0.00000000E+00
  0.00000000E+00  0.00000000E+00  0.00000000E+00
  0.00000000E+00  0.00000000E+00  0.00000000E+00
  0.00000000E+00  0.00000000E+00  0.00000000E+00
  0.00000000E+00  0.00000000E+00  0.00000000E+00
  0.00000000E+00  0.00000000E+00  0.00000000E+00
  0.00000000E+00  0.00000000E+00  0.00000000E+00
  0.00000000E+00  0.00000000E+00  0.00000000E+00
  0.00000000E+00  0.00000000E+00  0.00000000E+00
  0.00000000E+00  0.00000000E+00  0.00000000E+00
  0.00000000E+00  0.00000000E+00  0.00000000E+00
